Route #1: 7 35 14 59 66 65 38 11 53
Route #2: 19 54 13 57 15 5 48 29 45 27 52 4
Route #3: 30 21 47 36 37 20 70 60 71 69 61 28 74
Route #4: 2 62 73 1 22 64 42 43 41 56 23 63
Route #5: 33 16 49 24 18 50 25 55 31 10 58
Route #6: 12 72 39 9 32 44 3 40 17 51 6 68
Route #7: 26 8 46 34 67 75
Cost 727